p tw 72 79
1 2
2 13
3 4
4 5
5 6
6 7
7 8
8 9
9 10
9 19
10 11
11 12
12 14
13 24
14 15
15 16
16 17
17 18
18 7
19 20
20 21
21 22
22 23
23 25
24 35
25 26
26 27
26 29
27 28
28 29
28 31
29 30
30 69
31 32
32 33
33 34
34 36
35 46
36 37
37 38
38 39
38 21
39 40
40 41
41 42
42 43
42 62
43 44
44 45
45 47
46 57
47 48
48 49
49 50
50 51
51 52
52 53
53 54
53 59
54 55
55 56
56 58
57 68
57 3
58 59
59 60
60 61
61 21
62 63
63 64
64 36
65 66
66 67
67 69
68 71
69 70
71 72
71 25
72 65
